115257
0
75
2
8
7
6
3
4
5
9
10
20
19
31
30
29
28
33
32
34
35
36
37
18
17
11
12
13
14
74
15
16
38
39
40
41
60
59
58
61
62
57
63
64
73
72
71
56
55
51
65
66
50
49
52
53
54
42
43
27
26
44
48
67
70
68
69
47
45
46
24
25
21
22
23
1



